S = 9;
start = [|0,0,0,57,0,0,42,0,24,1,0,33,0,50,16,0,0,0,0,0,56,73,0,0,0,60,0,0,0,0,0,72,0,48,0,0,0,0,0,55,0,14,47,74,31,0,78,0,0,0,45,22,0,41,0,0,0,0,8,0,64,0,51,0,61,0,0,30,0,5,77,4,19,0,0,0,0,0,17,0,0|
0,0,28,0,74,0,0,0,0,0,0,0,0,0,0,44,0,14,59,0,39,57,0,0,0,0,70,0,0,0,0,0,9,0,0,0,0,0,0,0,0,19,58,37,46,68,0,0,10,0,29,0,0,35,0,0,0,5,0,81,0,0,0,1,0,0,0,0,0,20,27,66,0,0,0,0,0,0,16,0,0|
22,41,15,0,6,0,0,35,0,0,25,79,0,0,0,75,4,0,7,42,0,12,0,63,0,45,0,0,16,58,0,0,68,0,0,21,0,0,0,28,0,0,80,18,48,0,0,0,8,0,0,0,0,60,0,1,0,0,0,0,0,0,0,0,0,0,26,0,62,0,0,0,0,33,0,0,57,32,0,0,0|
0,0,0,0,0,0,38,0,0,0,0,0,0,5,41,26,0,0,0,30,0,0,0,10,0,0,0,0,0,0,0,0,66,0,67,0,0,9,0,0,0,0,0,0,0,0,0,0,0,0,0,0,0,34,77,0,0,0,0,0,47,48,72,0,0,31,16,0,0,0,69,63,51,0,0,13,0,45,0,0,27|
19,13,0,52,44,0,61,0,71,0,32,63,46,0,0,27,0,0,0,0,0,0,4,0,0,28,0,0,0,0,0,0,31,0,0,0,0,0,79,0,0,10,0,0,0,0,0,1,0,0,65,0,0,21,43,66,11,0,0,0,0,0,0,0,0,39,75,0,0,7,0,0,38,0,0,0,0,0,41,0,15|
0,77,0,0,0,0,0,16,0,0,0,0,7,72,0,60,18,0,74,0,25,0,0,49,0,0,0,0,0,1,0,42,13,0,0,0,0,0,0,63,0,33,0,0,57,0,19,0,67,0,0,0,30,5,0,0,0,0,0,0,0,0,0,0,79,9,0,0,0,0,0,0,0,69,0,0,0,0,31,0,59|
0,0,29,0,76,0,0,0,7,49,0,0,0,0,0,10,0,28,0,0,0,0,0,0,0,37,0,0,62,0,0,0,77,0,0,30,0,0,0,0,0,0,0,0,75,0,0,0,0,0,26,0,0,0,0,0,0,46,0,0,0,16,0,0,0,43,51,0,0,0,55,0,0,0,0,0,0,11,0,0,0|
81,0,0,0,0,0,0,0,10,0,0,64,0,23,51,0,0,0,0,71,0,0,0,0,24,13,0,0,5,53,47,0,61,0,45,0,0,0,16,0,0,0,0,0,0,0,0,57,33,0,56,0,0,0,0,0,31,65,49,35,74,0,0,19,0,0,0,0,0,0,0,17,0,0,0,43,0,42,0,0,0|
0,0,0,0,12,0,0,30,0,40,0,0,0,0,0,67,24,37,53,61,0,0,0,0,0,0,14,0,10,0,0,0,0,70,0,0,0,0,0,39,0,32,73,45,0,0,0,0,0,0,20,7,74,0,0,0,0,0,0,0,0,9,0,0,0,0,0,25,0,0,0,41,0,0,0,75,63,0,77,0,0|
0,53,0,77,0,6,0,15,0,0,0,0,0,0,0,42,7,0,35,0,0,0,0,0,0,30,0,0,0,0,0,0,0,0,40,0,0,0,0,33,0,0,0,0,61,72,0,76,0,0,0,0,0,0,24,0,0,73,17,0,0,0,47,0,63,80,0,0,70,0,0,0,67,0,51,0,32,0,0,0,68|
0,0,31,10,0,0,50,0,0,0,0,0,0,34,0,6,78,0,72,0,0,0,0,0,0,0,0,0,74,0,0,0,59,0,0,0,0,49,0,0,0,0,77,0,0,53,0,0,0,0,58,0,27,0,0,13,43,0,0,0,40,64,22,61,8,55,60,0,32,0,71,0,52,0,12,0,0,0,19,0,79|
0,0,0,56,0,0,0,73,0,0,0,71,0,0,13,0,0,0,67,0,59,0,0,0,42,62,5,0,0,0,0,0,0,61,58,0,0,0,0,0,0,7,0,0,0,0,9,74,0,0,0,0,11,36,79,0,0,0,46,0,8,33,0,0,28,0,0,0,0,81,0,0,0,0,48,29,78,0,0,0,0|
17,0,0,25,0,0,0,0,0,0,0,0,0,0,0,80,49,0,0,0,0,0,0,0,0,63,0,0,0,0,0,0,0,0,0,0,76,0,29,0,66,0,5,0,0,0,0,0,0,0,0,55,0,0,0,0,0,0,0,0,0,68,54,0,0,0,38,0,0,47,0,0,36,0,0,0,0,0,0,30,0|
0,0,80,0,0,0,0,78,37,0,74,0,0,0,79,0,0,0,0,2,0,0,0,0,0,69,0,67,71,0,0,0,75,0,57,0,0,0,0,0,59,0,0,0,0,0,0,0,0,0,0,0,0,0,0,0,30,0,0,50,0,35,0,0,0,0,0,0,0,0,0,0,0,0,0,0,0,0,0,0,0|
0,0,9,0,65,0,0,45,35,0,0,0,77,0,68,0,0,0,0,0,0,38,0,0,0,0,0,0,19,0,0,0,0,23,0,0,0,57,0,0,0,30,46,42,0,0,21,0,0,0,13,0,0,0,0,15,0,51,0,0,0,0,0,50,0,73,0,0,0,0,44,1,0,58,0,0,0,0,28,18,0|
0,0,0,0,71,0,3,0,58,0,20,0,0,0,0,0,0,0,0,0,0,68,46,13,0,0,0,0,0,0,0,28,0,35,0,0,0,0,63,0,67,0,0,0,0,73,1,0,0,7,41,0,0,12,0,0,0,0,0,0,0,0,0,66,0,0,0,39,4,77,74,0,0,0,14,0,0,0,0,0,0|
0,16,75,0,0,30,0,0,0,0,0,61,0,0,0,58,0,0,0,0,0,24,0,0,0,0,9,0,0,0,0,0,0,0,0,0,0,23,38,0,68,0,0,0,0,0,0,0,49,0,0,47,0,0,0,0,0,0,0,0,0,0,11,22,65,0,0,0,33,0,0,0,0,74,0,0,0,0,0,0,57|
0,55,0,2,0,0,0,0,70,0,0,0,0,48,0,0,0,0,0,0,0,0,26,43,0,0,0,0,0,0,0,0,0,0,3,39,25,13,0,24,0,0,0,9,0,10,0,0,0,0,0,0,0,63,0,0,0,31,0,0,0,0,0,0,64,0,0,58,0,27,0,0,0,40,59,0,0,0,0,0,0|
0,0,54,0,17,0,0,0,0,0,30,6,53,0,0,0,0,0,50,81,49,75,0,66,55,33,0,0,0,0,62,0,22,12,59,4,0,0,0,0,0,0,0,0,0,0,34,0,0,0,37,0,0,0,25,0,21,0,0,3,35,0,0,47,0,0,70,0,0,0,24,0,80,0,0,8,0,0,44,76,58|
3,76,0,63,41,0,5,0,0,0,0,0,25,0,0,0,72,58,0,0,48,42,52,0,0,0,1,33,0,0,0,0,0,13,0,0,0,0,0,23,45,8,0,0,29,62,0,17,32,0,61,46,0,0,0,0,0,0,0,54,44,0,0,0,0,16,55,0,0,0,0,31,0,0,0,0,0,12,0,0,0|
8,0,0,0,0,20,0,2,0,0,0,0,0,0,0,0,19,0,0,0,0,0,30,28,0,0,0,0,0,31,0,25,0,0,0,48,16,39,0,0,0,0,0,61,0,0,0,0,0,81,0,0,21,0,0,0,0,34,32,0,0,0,0,13,0,0,49,0,0,0,45,0,0,0,0,51,0,0,0,0,0|
0,47,0,58,0,0,0,0,0,60,56,0,0,0,8,45,0,0,0,0,0,39,0,0,0,0,62,0,0,0,80,32,0,0,55,72,34,0,66,0,0,0,9,0,0,0,0,0,0,23,0,0,3,0,0,18,64,0,0,0,0,0,0,0,30,0,12,76,0,38,0,28,0,67,0,7,0,0,0,0,0|
39,80,24,0,75,0,0,0,0,33,0,34,41,49,0,47,20,0,0,0,46,0,0,45,29,58,0,54,0,0,0,0,0,18,0,15,0,0,44,53,0,0,81,0,0,0,0,0,70,0,0,0,69,51,0,5,22,0,48,0,0,77,0,0,3,0,0,0,0,0,0,0,0,79,0,0,0,0,0,0,0|
0,0,0,66,51,26,0,0,4,5,48,0,0,0,0,0,0,0,0,0,44,74,13,0,0,0,36,7,0,78,56,58,0,0,0,0,0,0,0,32,0,0,0,0,77,47,60,0,0,0,0,0,0,0,0,0,0,0,0,0,0,0,27,0,0,0,0,0,0,0,0,69,0,0,0,0,0,0,0,57,11|
45,23,12,0,0,0,0,0,74,50,0,0,0,0,0,3,0,81,0,0,0,0,0,19,43,72,0,0,65,0,0,8,44,0,27,0,0,0,0,0,0,62,0,36,0,0,33,0,0,0,49,0,25,0,29,46,0,0,0,76,0,0,31,0,0,0,34,0,0,0,0,0,0,0,0,10,0,0,0,0,0|
0,0,0,0,0,0,0,0,0,0,4,0,0,21,0,59,28,0,0,0,14,20,0,0,0,0,0,0,0,0,0,26,3,37,0,0,0,0,11,0,0,0,0,0,0,0,0,0,0,0,0,0,0,73,0,0,0,30,0,42,0,0,0,0,0,0,0,0,0,0,60,0,0,0,72,0,0,70,0,0,0|
55,0,0,0,0,0,21,68,0,0,0,67,0,0,0,0,0,0,8,0,0,0,0,0,0,0,0,0,0,0,0,0,79,0,5,10,0,4,33,0,0,17,0,0,0,0,0,0,0,0,0,0,0,0,0,14,0,0,74,2,0,0,28,0,75,81,0,0,35,0,58,0,0,0,0,0,31,50,0,38,20|
0,0,0,51,77,0,0,0,0,11,0,62,40,43,0,0,76,50,0,5,0,0,80,55,0,0,0,68,25,0,46,0,0,0,0,29,0,0,0,61,0,6,0,38,0,0,0,0,0,52,0,0,0,0,0,0,0,39,0,0,0,0,0,0,0,30,0,3,0,0,41,0,0,0,18,45,37,0,0,9,0|
0,0,3,64,10,0,0,55,0,0,0,58,13,0,0,0,30,0,0,0,0,67,17,0,40,0,0,0,73,0,0,0,0,0,14,0,23,0,0,0,0,0,0,0,0,0,0,0,68,0,62,4,0,7,0,81,0,0,0,0,0,38,0,45,0,0,0,16,0,0,0,0,0,0,0,0,0,0,0,72,0|
0,0,0,0,70,0,0,0,0,0,0,0,26,0,0,0,47,0,0,0,0,77,19,0,0,53,0,0,0,0,0,51,81,0,0,0,39,20,0,0,0,0,0,0,59,0,0,13,29,0,0,0,0,18,0,62,0,6,0,0,4,0,60,0,38,0,0,54,49,31,56,0,0,0,0,55,0,0,22,0,7|
29,0,0,0,0,34,0,26,0,0,2,0,0,0,0,0,0,0,0,0,0,0,0,0,20,0,32,0,24,0,0,0,56,0,0,0,7,0,45,0,0,0,55,0,62,0,0,0,0,19,0,27,0,0,0,0,0,8,0,0,0,0,0,23,0,0,33,0,0,18,0,37,0,0,0,0,48,65,0,0,39|
43,0,62,0,0,0,0,0,0,0,0,0,78,0,0,0,67,0,0,59,0,31,0,0,0,0,0,0,0,0,17,0,0,8,0,42,41,0,47,0,9,0,68,32,0,65,0,22,0,0,75,0,0,0,12,0,74,21,0,44,0,0,0,0,0,0,0,0,61,69,0,0,0,28,0,0,76,0,0,0,54|
61,0,0,76,0,0,0,0,0,0,71,54,0,65,0,35,38,0,0,22,0,0,62,0,0,0,0,0,0,0,0,39,57,0,26,7,0,0,0,0,73,60,0,0,33,0,0,70,45,31,0,0,12,0,47,0,0,0,42,10,0,0,0,0,0,0,0,0,0,0,75,0,0,0,53,11,0,29,0,0,78|
0,0,0,81,0,0,0,0,0,0,22,0,48,64,0,0,0,0,28,0,69,0,0,0,0,0,0,0,1,63,12,0,0,0,70,0,0,0,0,0,30,25,35,16,15,0,0,2,0,60,0,0,0,0,0,0,0,45,0,0,0,0,0,26,0,0,0,0,0,0,17,80,0,0,44,0,56,67,0,0,33|
0,0,0,0,0,0,0,0,0,20,0,0,0,0,0,0,66,0,0,0,0,0,70,0,39,0,0,0,0,0,0,0,0,0,36,60,0,0,0,0,0,50,24,0,0,0,0,0,0,30,47,0,58,0,54,0,0,0,0,72,0,0,0,0,40,0,0,0,0,0,13,0,8,43,0,0,62,21,0,0,0|
0,0,0,42,0,0,0,0,0,0,0,19,0,0,27,0,0,0,14,0,0,0,0,30,48,73,0,0,0,0,0,0,0,74,0,0,63,0,0,0,0,0,8,54,0,0,0,0,79,0,0,0,0,0,53,0,0,0,18,0,0,0,0,0,0,0,43,9,0,72,64,46,5,38,0,0,0,66,0,0,1|
0,0,0,0,0,10,0,0,22,31,0,0,0,41,0,0,0,20,0,0,28,80,0,42,0,0,0,0,0,6,0,0,0,43,17,0,0,0,0,0,0,0,0,0,0,0,0,19,0,0,46,0,0,0,0,40,0,0,0,57,0,0,0,0,0,0,0,70,39,50,0,0,0,0,0,59,0,0,0,52,0|
0,0,0,0,0,0,0,47,0,46,62,0,0,0,0,0,0,38,0,0,7,30,0,0,9,0,20,0,0,0,0,22,0,0,0,55,0,0,15,0,0,72,0,0,0,0,0,0,0,0,0,0,0,0,0,0,0,0,0,0,43,13,0,0,35,78,0,0,0,0,0,0,69,81,19,0,0,58,53,0,0|
0,0,56,0,0,0,0,0,0,0,0,0,28,0,0,0,0,73,6,0,0,0,0,0,0,0,0,0,0,30,0,0,0,0,15,0,65,0,46,0,0,24,0,0,0,0,0,60,0,0,9,75,0,0,0,0,0,16,71,0,0,0,0,79,74,0,0,69,0,2,0,0,22,0,63,0,17,68,0,0,10|
0,0,0,0,0,5,0,0,0,0,15,77,0,0,76,0,0,7,0,0,0,4,11,39,0,0,0,0,0,0,0,0,0,36,75,58,0,0,61,0,0,0,0,0,0,0,0,0,81,0,67,0,0,56,46,0,0,0,0,0,0,0,0,24,0,0,0,48,0,0,0,30,0,0,0,0,0,0,64,0,0|
62,0,0,0,0,0,0,0,0,0,11,50,0,30,2,0,0,0,0,0,10,0,0,32,21,26,0,65,31,5,0,0,0,0,0,0,0,17,0,0,0,0,0,0,0,0,0,20,13,0,38,0,33,0,0,0,0,0,0,0,76,58,64,0,7,0,0,0,55,6,54,8,49,0,0,0,0,0,46,0,0|
6,0,64,0,0,0,0,4,42,0,0,0,0,36,0,0,0,54,0,0,67,0,0,0,31,0,0,0,27,0,41,3,0,0,29,69,5,0,0,0,80,0,0,0,73,52,0,0,15,45,0,61,0,0,0,0,0,0,0,0,49,0,0,17,32,0,0,26,0,0,0,0,0,1,57,0,0,0,0,0,2|
66,0,0,0,0,0,0,0,33,0,70,0,0,0,0,0,0,16,12,0,0,0,0,76,60,0,0,32,61,0,68,48,0,54,46,14,38,0,0,52,40,41,44,0,0,80,0,29,57,0,0,0,0,0,0,0,0,0,0,0,9,0,42,0,27,0,0,64,0,0,0,58,0,0,0,74,0,0,0,0,71|
0,0,0,8,0,27,43,38,0,0,75,0,3,0,0,0,0,0,0,0,52,0,0,0,0,0,24,0,0,0,0,56,0,0,11,0,0,55,0,0,29,0,0,31,18,71,0,0,0,5,0,58,0,78,0,28,0,0,50,0,0,7,0,0,0,0,0,0,0,16,66,0,0,0,0,0,0,0,0,40,77|
70,25,0,75,0,0,73,0,34,0,0,66,64,0,0,0,0,32,5,0,36,0,45,0,0,0,2,0,0,0,0,0,0,50,0,0,53,0,8,58,23,0,0,79,22,74,0,0,0,0,31,0,0,16,78,17,20,26,0,0,0,0,6,68,77,0,0,0,0,0,0,0,0,0,76,0,11,0,29,0,0|
54,61,0,5,31,0,32,0,43,0,0,80,0,0,0,0,0,0,71,0,23,0,0,62,0,70,49,0,0,0,81,0,0,0,0,12,33,0,0,17,0,0,0,0,60,0,52,0,0,78,19,0,0,0,0,0,0,0,0,4,0,0,0,0,25,0,0,0,66,75,0,0,0,44,0,0,0,0,0,34,0|
0,0,0,0,27,0,0,19,0,0,0,0,0,0,0,0,64,65,0,51,0,0,0,0,69,0,0,0,0,0,0,0,63,0,16,0,12,0,0,11,10,0,0,0,0,0,0,34,0,39,70,0,60,0,50,9,13,0,66,6,0,0,0,0,0,0,77,0,0,0,37,0,0,17,1,0,0,0,0,0,0|
0,0,0,0,0,0,0,0,53,0,69,78,0,0,0,0,39,0,0,60,0,26,0,0,0,0,0,0,0,0,0,52,0,7,0,0,30,45,0,67,43,0,0,0,0,9,35,0,0,0,0,0,47,0,0,0,0,0,21,0,0,0,0,70,0,72,0,63,0,34,0,0,0,0,79,0,29,0,49,0,14|
0,0,25,16,0,0,0,80,0,23,0,0,0,0,0,30,0,0,0,0,3,0,0,18,0,0,21,0,0,0,54,0,0,5,47,0,0,0,0,0,0,0,0,0,69,48,0,0,0,0,0,74,0,0,32,0,0,14,0,0,46,0,0,11,0,0,0,0,6,0,0,0,0,66,0,33,0,0,0,0,0|
0,0,0,0,0,0,28,76,21,35,72,0,0,0,0,0,37,0,0,0,0,0,0,0,25,0,31,0,0,0,0,0,30,0,44,0,0,0,0,6,0,40,0,41,0,0,0,0,0,0,69,0,0,0,0,0,77,0,68,0,17,0,0,49,0,0,61,0,0,52,47,0,0,51,16,0,0,0,0,55,42|
0,29,72,3,0,4,0,17,0,48,0,20,0,0,52,0,0,0,0,65,0,36,0,11,0,0,0,0,42,67,0,0,70,0,0,0,0,25,22,0,0,0,0,0,0,0,0,5,18,0,0,68,50,0,58,0,0,7,0,0,75,0,80,0,0,0,0,0,0,0,0,0,0,0,0,0,0,59,57,0,0|
0,0,0,0,30,0,0,65,0,32,0,0,19,62,0,0,0,0,0,37,0,22,0,0,67,0,0,58,0,0,18,0,28,57,51,0,0,70,0,66,26,56,0,0,74,0,15,0,36,21,0,0,0,0,0,0,0,0,0,0,42,23,0,59,53,0,0,0,0,12,0,0,0,0,71,0,46,0,47,78,0|
67,0,6,0,0,0,0,0,0,77,0,0,0,0,0,0,14,0,52,0,5,0,0,0,16,0,30,0,0,11,0,74,0,0,0,0,0,0,0,81,0,0,0,0,0,58,0,26,0,0,0,0,0,0,0,0,27,0,0,0,15,0,0,41,31,0,0,29,1,0,0,0,0,53,36,0,35,0,0,0,0|
0,0,7,0,22,66,23,0,0,0,0,0,0,0,5,0,0,15,0,80,0,0,29,0,19,0,0,0,0,0,0,78,0,0,56,64,0,42,75,0,14,0,0,73,0,0,0,0,71,0,0,0,79,0,0,52,0,41,81,0,0,0,0,0,0,0,0,0,8,0,62,57,0,0,10,0,0,0,69,0,0|
0,42,0,0,0,0,24,0,30,0,0,0,0,19,31,77,81,0,0,0,0,0,0,0,0,0,67,0,0,0,50,49,0,0,0,0,0,35,0,0,0,54,0,33,78,0,0,0,21,0,36,38,0,0,0,56,0,0,0,0,0,0,12,0,0,0,8,44,10,0,0,0,0,0,0,0,40,0,72,0,13|
0,0,0,0,81,0,0,0,0,0,13,0,0,0,53,0,0,0,0,72,0,56,0,0,37,0,47,0,0,0,0,0,32,0,73,0,46,0,43,0,0,0,48,0,17,0,0,0,0,0,80,0,31,0,28,0,0,0,26,0,16,0,15,0,12,0,0,0,40,0,7,0,0,0,0,0,0,0,0,0,0|
0,1,18,0,0,0,0,0,0,0,0,0,0,47,0,0,0,57,73,0,17,0,40,0,0,0,0,0,11,56,0,0,0,0,0,0,0,0,0,79,0,0,0,23,0,0,50,0,0,0,0,0,0,0,0,0,0,0,0,0,58,0,24,0,0,0,19,0,0,0,0,0,16,0,69,0,0,15,0,0,0|
71,58,4,0,0,19,0,57,0,62,0,5,59,0,70,0,44,0,0,0,0,0,69,0,0,43,0,0,0,0,0,0,0,0,0,54,0,0,0,16,0,0,11,0,0,45,0,0,3,0,0,0,81,0,0,0,0,0,0,1,0,27,67,0,0,79,0,0,0,35,0,0,0,0,0,0,53,0,0,28,0|
0,11,66,0,0,0,0,36,75,0,0,0,0,46,54,0,0,0,0,0,80,0,0,0,5,0,0,0,0,0,0,44,40,0,0,0,0,0,0,0,51,58,0,70,37,29,0,0,0,0,0,0,0,17,0,0,0,64,0,0,10,20,0,69,0,0,0,81,0,76,0,47,0,0,38,0,0,4,0,0,0|
15,0,33,0,0,28,0,0,0,0,0,0,0,0,0,74,0,30,65,0,26,0,38,0,0,0,0,0,72,0,0,0,2,4,0,0,0,80,71,56,75,0,62,0,0,0,67,0,63,0,44,48,0,70,17,78,0,69,0,46,0,0,0,0,0,0,6,27,0,0,14,23,21,0,3,31,0,49,0,0,0|
0,0,0,0,0,0,0,0,0,0,61,0,69,0,0,0,56,0,0,0,70,0,0,0,0,0,0,1,46,51,0,0,0,28,30,0,0,0,0,18,19,0,40,7,0,0,0,0,0,0,0,0,24,52,0,6,75,0,39,0,0,0,57,0,0,0,21,0,0,0,0,72,79,0,0,0,0,10,0,0,0|
0,0,48,41,0,51,65,0,67,0,0,0,0,33,0,0,50,0,0,0,6,0,0,0,0,0,0,19,0,0,0,0,0,10,0,0,13,0,52,27,0,0,53,0,30,0,0,73,5,0,0,0,0,0,0,0,0,0,0,0,63,0,3,43,0,0,0,0,0,0,31,38,0,59,0,0,0,0,0,44,60|
0,0,0,20,0,0,70,0,38,0,0,0,0,10,0,17,0,2,0,0,61,0,76,0,0,0,28,26,0,0,77,0,0,25,0,0,0,0,0,0,0,0,0,0,0,0,12,0,19,0,15,0,0,62,0,72,40,0,73,0,80,0,0,0,0,0,0,56,58,0,0,0,75,11,0,35,74,0,0,7,6|
0,0,0,0,0,0,0,0,80,0,0,0,79,0,50,0,62,75,0,0,0,37,0,47,0,0,0,4,68,0,0,0,10,56,0,0,70,16,0,12,0,0,0,30,64,0,0,33,0,0,0,0,0,42,0,0,0,35,0,0,0,0,0,0,52,0,0,34,0,0,76,0,0,0,0,0,0,0,59,21,81|
0,0,0,0,0,0,0,0,0,26,0,0,0,0,48,78,0,19,0,75,0,0,60,24,15,23,0,0,44,0,0,0,0,0,0,43,10,73,0,0,69,0,0,0,0,0,0,0,72,0,0,0,52,0,0,45,0,0,0,0,21,0,0,0,0,0,0,0,0,0,0,0,66,0,0,0,0,0,0,0,46|
24,0,61,0,0,15,0,25,66,0,0,35,0,0,0,0,11,0,0,1,77,0,65,0,49,71,0,0,0,64,0,0,6,0,0,0,19,32,23,54,0,0,0,27,0,26,55,67,0,0,0,0,53,0,0,58,0,0,0,79,0,0,0,38,47,0,0,80,0,70,0,59,0,0,0,0,0,0,0,50,12|
64,0,53,0,5,11,0,0,0,0,0,22,0,0,58,0,0,0,0,0,0,0,0,35,61,0,0,0,0,0,0,0,0,0,24,0,48,0,0,0,0,0,72,0,0,0,0,15,0,12,50,0,0,0,0,0,0,0,0,51,0,66,0,46,0,0,0,0,0,74,0,0,0,41,0,52,0,0,0,17,0|
0,0,0,0,55,0,0,0,29,0,0,13,45,0,69,0,52,5,0,0,0,0,50,0,0,0,0,0,0,0,0,80,74,0,77,0,0,0,51,0,0,0,0,24,39,19,0,0,1,0,0,0,64,31,0,0,0,48,0,0,0,32,0,0,0,0,0,33,22,0,0,16,42,0,20,0,0,54,0,0,0|
0,0,0,65,0,68,0,0,0,0,0,0,0,0,0,70,0,0,0,0,0,0,0,53,7,57,0,12,32,0,52,0,60,0,0,0,0,0,0,0,0,0,37,0,0,0,44,0,0,0,0,17,0,23,0,0,6,28,0,78,0,0,33,42,0,40,30,0,0,0,39,19,29,25,0,27,0,72,0,0,0|
23,0,30,33,0,0,0,41,0,0,0,51,0,12,0,0,60,0,0,0,0,0,0,0,0,0,0,0,0,0,0,0,34,0,66,40,0,0,50,0,15,61,36,0,20,0,0,45,73,32,43,0,0,0,13,25,0,0,0,0,18,49,0,0,0,0,0,10,28,0,3,0,0,76,0,0,0,55,67,63,74|
9,0,0,35,0,0,0,22,0,0,0,0,16,0,0,0,0,0,29,3,0,0,0,0,0,0,0,0,0,0,76,65,73,11,33,0,0,62,0,0,0,0,41,0,0,0,0,0,40,0,6,0,68,75,0,0,0,0,0,0,0,0,0,0,0,7,63,0,60,58,0,0,0,0,0,0,0,38,0,0,0|
0,0,0,0,0,0,0,0,0,0,0,0,0,1,0,0,80,0,51,0,0,5,0,0,0,0,0,0,0,0,0,70,15,0,25,62,0,33,60,57,0,0,0,0,0,0,0,0,47,0,34,11,0,59,0,12,0,0,76,30,20,0,0,64,0,0,24,8,0,23,0,0,0,0,0,56,0,0,0,13,0|
56,12,0,70,0,0,0,0,0,68,0,0,0,0,20,0,0,0,0,33,0,0,0,0,0,0,0,0,0,0,36,34,0,0,61,0,50,24,3,0,5,0,2,0,11,0,0,71,0,0,1,0,0,44,0,0,0,0,0,0,0,0,0,0,72,75,0,28,79,0,0,0,0,0,0,38,0,35,0,8,63|
0,0,11,0,0,8,0,0,0,0,0,0,47,0,6,0,0,43,0,50,0,0,21,0,0,0,46,0,0,35,48,0,0,52,0,57,0,0,67,0,0,16,0,59,0,0,0,0,0,73,0,0,0,0,0,0,56,0,0,26,55,0,0,0,0,0,1,15,0,0,0,0,0,0,78,0,0,0,0,0,0|
0,0,0,0,78,0,19,0,14,81,44,0,0,0,0,0,57,0,0,0,0,0,20,8,0,0,0,50,0,0,0,0,0,64,49,0,0,31,0,22,1,0,0,0,0,46,0,0,0,2,0,67,0,0,0,0,0,42,0,0,0,63,62,9,33,60,0,13,0,0,0,0,28,54,11,0,0,0,0,39,0|
0,57,0,1,0,22,0,0,0,79,0,0,24,0,0,0,0,0,0,76,0,64,36,0,0,0,0,30,59,0,66,0,23,33,2,0,78,0,0,0,0,52,0,43,0,8,0,0,26,0,0,0,0,0,0,35,0,0,0,0,0,0,0,0,0,0,0,0,38,0,0,0,0,0,6,0,65,0,55,71,44|
0,0,0,55,0,0,0,0,0,0,42,56,70,11,0,0,0,0,0,0,45,0,78,65,0,0,29,0,0,0,71,60,38,0,0,0,0,0,72,20,0,79,0,48,0,50,0,0,0,0,0,0,57,0,7,43,0,36,0,0,0,0,0,0,0,47,69,0,19,32,0,0,0,61,0,0,15,0,0,26,40|
16,62,0,46,49,0,0,0,0,61,0,23,0,0,0,0,0,0,0,0,0,0,0,0,0,0,0,0,0,0,0,0,0,68,0,0,0,0,14,0,0,81,45,0,0,77,4,80,0,37,74,0,0,0,0,0,0,75,9,71,6,0,29,0,0,70,0,0,0,54,0,0,0,0,0,0,0,0,48,59,18|
0,54,0,0,0,0,0,0,0,0,0,0,17,0,30,28,0,0,0,0,73,55,71,0,0,56,15,0,0,18,0,81,0,0,0,65,0,7,0,68,0,0,0,0,0,0,45,0,0,0,0,0,36,0,48,41,0,19,0,0,0,0,0,0,0,0,0,0,0,0,0,0,0,0,0,57,0,0,0,33,0|
0,0,0,0,0,0,34,0,0,0,1,0,0,22,0,0,0,0,0,0,0,0,0,37,74,0,18,0,0,62,0,75,0,0,0,0,0,0,0,30,77,0,0,69,0,0,0,0,0,51,17,0,0,11,0,0,0,76,0,0,59,57,0,27,0,61,14,53,0,0,65,0,0,56,0,0,0,0,0,0,0|
0,0,65,0,0,0,0,0,0,0,0,0,0,66,62,0,71,9,40,0,0,0,0,0,0,52,61,70,0,0,0,0,0,29,0,22,42,18,0,0,28,0,0,0,0,39,72,0,0,0,0,0,0,0,30,33,0,78,0,47,38,0,21,0,0,0,0,0,41,0,48,77,0,37,68,0,64,36,0,0,0|];